200
1000
206
206
206
206
203
200
200
198
197
196
196
196
194
193
193
192
192
192
192
192
191
191
191
190
189
188
188
187
187
186
184
180
180
177
177
176
175
175
172
172
171
171
170
170
169
168
168
164
162
160
159
159
158
156
154
153
152
149
149
149
148
145
145
145
144
144
141
141
140
140
138
138
137
137
136
135
135
135
134
133
131
131
130
129
129
129
128
128
127
124
124
124
122
121
120
119
115
115
114
113
113
113
113
111
111
111
108
107
107
106
104
104
104
103
103
103
102
101
101
100
95
93
92
92
91
91
89
89
88
88
87
84
84
84
79
78
78
77
74
72
71
70
69
69
67
66
66
64
63
63
62
62
59
57
55
54
54
54
54
52
52
51
50
49
49
49
47
45
45
45
43
43
42
41
40
38
38
38
38
37
37
33
31
31
31
29
26
26
25
25
23
22
22
21
21
18
18
17
17
13
